c Lingeling SAT Solver
c 
c Version ala b02aa1a04343558c4252b5f4a723be021964f652
c 
c Copyright (C) 2010-2012 Armin Biere JKU Linz Austria.
c All rights reserved.
c 
c released Sat Oct 13 14:05:26 CEST 2012
c compiled Sat Feb 16 02:48:12 EST 2013
c 
c gcc (Debian 4.4.5-8) 4.4.5
c -Wall -O3 -DNLGLOG -DNDEBUG -DNCHKSOL -DNLGLPICOSAT 
c Linux greencar2 2.6.32-5-amd64 x86_64
c 
c reading input file p03.cnf
c no embedded options
c found 'p cnf 75731 224911' header
c read 75731 variables, 224911 clauses, 465569 literals in 0.0 seconds
c
c feature vars 75731
c feature lits.total 465569
c feature lits.pos 250862
c feature lits.neg 214707
c feature clauses.total 224911
c feature clauses.unit 30061
c feature clauses.bin 159242
c feature clauses.trn 34908
c feature clauses.lrg 700
c feature cog.val.min 1
c feature cog.val.avg 33691
c feature cog.val.max 71193
c feature cog.var.min 1
c feature cog.var.avg 37866
c feature cog.var.max 75730
c
c
c --abstime=0
c --acts=2
c --actavgmax=120
c --actstdmin=20
c --actstdmax=80
c --agile=23
c --bias=2
c --block=1
c --blkrtc=0
c --blkclslim=2000
c --blkocclim=2000
c --blkmaxeff=2147483647
c --blkmineff=10000000
c --blkreleff=20
c --card=0
c --cce=3
c --ccemaxeff=100000000
c --ccemineff=5000000
c --ccereleff=3
c --check=0
c --cgrclsr=1
c --cgrmaxority=20
c --cgrmaxeff=8000000
c --cgrmineff=200000
c --cgreleff=1
c --cgrexteq=1
c --cgrextand=1
c --cgrextunits=1
c --cgrextite=1
c --cgrextxor=1
c --cliff=1
c --cliffreleff=8
c --cliffmineff=10000000
c --cliffmaxeff=100000000
c --compact=0
c --decompose=1
c --defragint=10000000
c --defragfree=50
c --elim=1
c --elmrtc=0
c --elmblk=1
c --elmclslim=1000
c --elmocclim=1000
c --elmaxeff=100000000
c --elmineff=5000000
c --elmreleff=10
c --sleeponabort=0
c --exitonabort=0
c --flipping=1
c --flipint=2
c --flipdur=50
c --fliptop=1
c --force=0
c --gauss=1
c --gaussextrall=1
c --gaussmaxor=20
c --gaussexptrn=1
c --gaussmaxeff=50000000
c --gaussmineff=2000000
c --gaussreleff=2
c --gluescale=2
c --gluekeep=0
c --inprocessing=1
c --cintinc=10000
c --irrlim=20
c --lift=1
c --lftmaxeff=20000000
c --lftmineff=500000
c --lftreleff=6
c --lhbr=1
c --lkhd=1
c --clim=-1
c --mocint=1000
c --move=2
c --log=-1
c --otfs=1
c --phase=0
c --phaseneginit=0
c --plain=0
c --probe=1
c --prbasicmaxeff=100000000
c --prbasicmineff=1000000
c --prbasicreleff=10
c --prbasic=1
c --prbasicroundlim=9
c --queuemergelim=10000
c --queuefactor=833
c --queueinc=20
c --rmincpen=4
c --seed=0
c --smallirr=90
c --smallve=1
c --smallvevars=12
c --randec=1
c --randecint=1000
c --redfixed=0
c --redlbound=0
c --redlexpfac=10
c --redldoutfac=0
c --redloutinc=10000
c --redlinit=1000
c --redlinc=1000
c --redinoutinc=100
c --redlmininc=10
c --redlmaxinc=200
c --redlminrel=10
c --redlmaxrel=300
c --redlminabs=500
c --redlmaxabs=1000000
c --reduce=1
c --restart=2
c --restartint=5
c --rstinoutinc=110
c --simplify=1
c --simpdelay=100
c --simpen=4
c --sizepen=1000000
c --sizemaxpen=3
c --sortlits=0
c --syncint=111111
c --termint=122222
c --ternres=1
c --ternresrtc=0
c --trnrmineff=4000000
c --trnrmaxeff=40000000
c --trnreleff=10
c --transred=1
c --trdmineff=100000
c --trdmaxeff=2000000
c --trdreleff=10
c --unhide=1
c --unhdextstamp=1
c --unhdhbr=0
c --unhdmaxeff=20000000
c --unhdmineff=1000000
c --unhdreleff=4
c --unhdlnpr=3
c --unhdroundlim=5
c --verbose=1
c --witness=1
c [limits] no conflict limit
c [limits] simplification delayed by 100 to 100 conflicts
c 
c  seconds         irredundant          redundant clauses agility   height
c          variables clauses conflicts large binary ternary    glue         MB
c 
c *    0.0   36708   145888         0       0      0     0  32  0.0   0.0   14
c [cut-width] 47867, max 84500, min4 17700 at 75%, min10 17645 at 83%
c [decision-order] bias 1, old 1
c [queue-schedule-all-variables]
c s    0.0   36708   145888         0       0      0     0  32  0.0   0.0   14
c [simplification-1] limit hit at 102 conflicts
c [simplification-1] simplification penalty of 4
c [ternres-1] limit 4000000 with penalty 0 = 0 + 0
c [ternres-1] all 36708 free variables schedulable
c [ternres-1] 0 ternary resolvents (0 bin, 0 trn)
c [ternres-1] fully completed ternary resolution
c [gauss-1] limit 2000000 penalty 0 = 0 + 0
c [gauss-1] extracted 137805 xors of average arity 2.0
c [gauss-1] connected 275631 occurrences of 36608 variables (average 7.5)
c [gauss-1] limit 2000000 penalty 0 = 0 + 0
c [gauss-1] exported 0 unary, 0 binary and 0 ternary equations
c G    0.5   36708   134392       102     102      0     0  26  6.6  49.8    9
c d    0.5   15666    65500       102     102      0     0  26  6.6  49.8    7
c [basicprobe-1] limit 1000000 penalty 0 = 0 + 0
c [basicprobe-1-0] 2063 probes remain 13% after last round
c [basicprobe-1-0] 4 units = 4 failed (100%) + 0 lifted (0%)
c [basicprobe-1-0] removed 4 variables, found 4322 hbrs
c p    0.6   15662    65500       102     102   4322     0  26  6.6  49.8    9
c [cgrclsr-1] limit 200000 penalty 0 = 0 + 0
c [cgrclsr-1] all 15662 free variables schedulable
c [cgrclsr-1] fully completed congruence closure
c [lift-1] limit 500000 with penalty 0 = 0 + 0
c [lift-1] using 15662 probes 100%
c [lift-1] 15528 variables remain 99% (129 retained)
c [lift-1] removed 5 variables
c ^    0.8   15657    65455       102     102   4815     0  26  6.6  49.8    8
c [cliff-1] limit of 10000000 steps penalty 0 = 0 + 0
c [cliff-1] failed 11, lifted 7
c K    1.4   15626    65455       102     102  14763     0  26  6.6  49.8    9
c [unhide-1] limit 1000000 with penalty 0 = 0 + 0
c [unhide-1-3] 0 units, 0 failed, 10821 tauts, 0 hbrs, 397 literals
c u    1.5   15626    61644       102     102   7371     0  26  6.6  49.8    8
c [transred-1] limit 100000 with penalty 0 = 0 + 0
c t    1.6   15626    61642       102     102   7367     0  26  6.6  49.8    8
c [block-1] scheduling all variables this time
c [block-1] scheduled 15626 variables 100%
c [block-1] limit of 10000000 steps penalty 0 = 0 + 0
c [block-1] fully completed blocked clause elimination
c [block-1] transition to [ all 0 rem 0 ] state
c [block-1] eliminated 2400 blocked clauses
c k    1.6   15626    59242       102     102   7367  2400  26  6.6  49.8    8
c [cce-1] scheduling all variables this time
c [cce-1] limit of 10000000 steps penalty 0 = 0 + 0
c [cce-1] incomplete covered clause elimination 10377 not tried 66%
c [cce-1] transition to [ all 1 rem 1 ] state
c [cce-1] eliminated 989 covered clauses
c E    2.1   15618    58253       102     102  11254  2400  26  6.6  49.8    8
c [elim-1] scheduling all variables this time
c [elim-1] scheduled 15618 variables 100%
c [elim-1] limit of 5000000 steps penalty 0 = 0 + 0
c [elim-1] incomplete variable elimination 4130 not tried 26%
c [elim-1] transition to [ all 1 rem 1 ] state
c [elim-1] eliminated 4213 = 27% variables out of 15618
c e    3.6   11405    55807       102      50   2860   313  26  6.6  49.8    7
c [phase-1] phase bias: 735 positive 27%, 1964 negative 73%
c [simplification-1] removed 25303 variables 68%
c [simplification-1] limit increments divided by 35
c [simplification-1] arithmetic increase of conflict limit interval by 285
c [simplification-1] new irredundant limit 670702
c [simplification-1] new conflict limit 387
c [simplification-1] simplification penalty reduced to 3
c R    3.6   11405    55807       167     109   2861   318  21  6.3  88.0    8
c [simplification-2] limit hit at 389 conflicts
c [simplification-2] simplification penalty of 3
c [ternres-2] limit 2000000 with penalty 1 = 1 + 0
c [ternres-2] all 11405 free variables schedulable
c [ternres-2] 366 ternary resolvents (8 bin, 358 trn)
c [ternres-2] fully completed ternary resolution
c T    3.7   11405    55807       389     290   2879   703  13  5.8  87.0    9
c [gauss-2] limit 1000000 penalty 1 = 1 + 0
c [gauss-2] extracted 914 xors of average arity 3.0
c [gauss-2] connected 2762 occurrences of 960 variables (average 2.9)
c [gauss-2] limit 1000000 penalty 1 = 1 + 0
c [gauss-2] fully completed
c [gauss-2] exported 0 unary, 0 binary and 0 ternary equations
c G    3.8   11405    55807       389     290   2879   703  13  5.8  87.0    7
c [basicprobe-2] limit 1000000 penalty 0 = 0 + 0
c [basicprobe-2-0] 1373 probes remain 12% after last round
c [basicprobe-2-0] 1 units = 1 failed (100%) + 0 lifted (0%)
c [basicprobe-2-0] removed 1 variables, found 575 hbrs
c p    3.9   11404    55807       389     290   3454   688  13  5.8  87.0    8
c [cgrclsr-2] limit 100000 penalty 1 = 1 + 0
c [cgrclsr-2] all 11404 free variables schedulable
c [cgrclsr-2] fully completed congruence closure
c [lift-2] limit 500000 with penalty 0 = 0 + 0
c [lift-2] using 11310 probes 99%
c [lift-2] 11157 variables remain 98% (247 retained)
c [cliff-2] limit of 10000000 steps penalty 0 = 0 + 0
c [cliff-2] failed 0, lifted 0
c [unhide-2] limit 1000000 with penalty 0 = 0 + 0
c [unhide-2-7] 0 units, 0 failed, 1168 tauts, 0 hbrs, 500 literals
c u    4.9   11404    55239       389     286   3616   605  13  5.8  87.0    8
c [transred-3] limit 100000 with penalty 0 = 0 + 0
c t    4.9   11404    55234       389     286   3615   605  13  5.8  87.0    8
c [block-2] scheduling all variables this time
c [block-2] scheduled 11404 variables 100%
c [block-2] limit of 10000000 steps penalty 0 = 0 + 0
c [block-2] fully completed blocked clause elimination
c [block-2] transition to [ all 0 rem 0 ] state
c [block-2] eliminated 0 blocked clauses
c [cce-2] 9127 variables 80% will be scheduled this time
c [cce-2] limit of 10000000 steps penalty 0 = 0 + 0
c [cce-2] 7343 variables 64% remain to be tried next time
c [cce-2] transition to [ all 0 rem 1 ] state
c [cce-2] eliminated 758 covered clauses
c E    5.4   11404    54476       389     286   4385   605  13  5.8  87.0    7
c [elim-2] 4090 variables 36% will be scheduled this time
c [elim-2] scheduled 4090 variables 36%
c [elim-2] limit of 5000000 steps penalty 0 = 0 + 0
c [elim-2] fully completed variable elimination
c [elim-2] transition to [ all 0 rem 0 ] state
c [elim-2] eliminated 45 = 0% variables out of 11404
c e    5.8   11359    54391       389     272   4355   583  13  5.8  87.0    7
c [phase-2] phase bias: 16 positive 100%, 0 negative 0%
c [simplification-2] removed 46 variables 0%
c [simplification-2] no reduction of limit increments
c [simplification-2] arithmetic increase of conflict limit interval by 10000
c [simplification-2] new irredundant limit 670702
c [simplification-2] new conflict limit 10674
c [simplification-2] simplification penalty reduced to 2
c R    5.8   11359    54391       412     288   4355   588  13  5.6  85.4    8
c R    6.0   11359    54391       982     768   4369   652   7  6.2  82.5    9
c -    6.0   11359    54391      1313     513   4381   704   8  5.7  72.7    9
c 
c  seconds         irredundant          redundant clauses agility   height
c          variables clauses conflicts large binary ternary    glue         MB
c 
c R    6.2   11359    54391      2281    1350   4400   803   8  8.4  82.0    9
c -    6.7   11359    54391      4237    1527   4440   985   8  7.5  71.8    9
c i    6.7   11358    54390      4360    1645   4440   989   8  7.4  71.3    9
c 1    6.8   11358    54390      5090    2347   4444  1011   8  8.2  74.7    9
c 
c  seconds         irredundant          redundant clauses agility   height
c          variables clauses conflicts large binary ternary    glue         MB
c 
c blkd: 2 bces, 2400 removed, 379542 resolutions, 1030764 steps
c blkd: 2400 blocking literals 2%, 0 pure
c cces: 2 cces, 1711 eliminated, 1711 ate 100%, 0 abce 0%
c cces: 14282 probed, 0 lifted, 8 failed
c clff: 2 cliffs, 7 lifted, 11 failed
c clff: 28268 decisions, 20005350 steps
c clls: 1 sat, 0 simp, 0 freeze, 0 melt
c clls: 690480 add, 0 assume,, 0 deref, 0 failed
c clls: 0 cassume, 0 mosat
c coll: 15 gcs, 0 rescored clauses
c cgrs: 2 count, 300000 esteps, 153130 csteps
c cgrs: 0 eqs, 0 units
c cgrs: 0 matched (0 ands 0%, 0 xors 0%, 0 ites 0%)
c cgrs: 0 simplified (0 ands 0%, 0 xors 0%, 0 ites 0%)
c cgrs: 3960 extracted (3309 ands 84%, 651 xors 16%, 0 ites 0%)
c dcps: 2 decompositions, 21042 equivalent 28%
c decs: 37839 decision, 39 random 0.103%
c decs: 10109 flipped 26.716% (in 31 phases)
c elms: 2 elims, 4258 eliminated 6%
c elms: 4258 small 100%, 0 large 0%
c elms: 12622 tried small, 4258 succeeded 34%, 8364 failed 66%
c elms: 70 subsumed, 11 strengthened, 0 blocked
c elms: 264340 copies, 228797 resolutions, 370913 ipos
c elms: 12712 subchks, 3052 strchks
c frcs: 0 computed, 33.7 - 66.3 average min-cut range
c gaus: 2 extractions, 138719 extracted, 2.0 size, 5 max
c gaus: exported 0 units, 0 binary and 0 ternary equations
c gaus: 0 gc, 4414256 steps, 2207128 extr 50%, 2287883 elim 52%
c glue: 8.2 avg, 2.8 scaled avg
c glue: 0 maxredglue=15 (0%)
c lift: 2 phases, 1696 probed (567 level1 33%, 1129 level2 67%)
c lift: 2 units, 0 equivalences, 7 implications
c hbrs: 19456 hbrs = 19456 trn 100% + 0 lrg 0%, 46 sub 0%
c lrnd: 5020 clauses, 2962 uips 59%, 44.8 length, 8.2 glue
c ints: 255 luby (28447 steps), 0 inout (0 steps)
c mins: 225056 learned lits, 9% minimized
c move: moved 4111, 1711 binary 42%, 2400 ternary 58%
c otfs: str 286 dyn (213 red, 73 irr) 70 drv 24%, 216 rst 76%
c otfs: sub 3 dyn (3 red, 0 irr)
c phas: 2 computed, 2747 set, 751 pos (27%), 1996 neg (73%)
c prbs: 2 basic, 3064 probed, 5 failed, 0 lifted
c prps: 11649741 props, 92 props/dec
c prps: 30% srch, 70% simp, 0% lkhd
c psns: 599877 searches, 162250 hits, 27% hit rate
c queu: 25578 new, 10010 del, 120 maximum priority
c queu: 15551 merged, 10976 collected, 3 gcs
c queu: 5306 deprioritized, 28.4 lines on average
c reds: 2 count, 0 reset, 2 acts 100%, 0 exp 0%
c reds: 2 arithmetic 100%, 2 double 100%
c rmbd: 13 removed, 1 red 8%
c rsts: 226 restarts 89%, 28 skipped 11%
c rsts: 37 kept 16.4% average 50.6%
c simp: 2 count (0 ilim 0%, 0 plim 0%, 2 clim 100%)
c trnr: 2 count, 8 bin, 358 trn, 1483798 steps
c tops: 39073 fixed 52%, 1 iterations
c trds: 4 transitive reductions, 12 removed, 0 failed
c trds: 570 nodes, 841 edges, 200618 steps
c unhd: 2 count, 7 rounds, 2154273 steps
c unhd: 0 non-trivial sccs of average size 0.0
c unhd: 0 units, 0 bin, 0 trn, 0 lrg
c unhd: 0 failed, 0 stamp, 0 lits, 0 bin, 0 trn, 0 lrg
c unhd: 11989 tauts, 2 bin 0%, 337 trn 3%, 14 lrg 0%
c unhd: 11989 tauts, 11636 stamp 97%, 7807 red 65%
c unhd: 0 hbrs, 0 trn 0%, 0 lrg 0%, 0 red 0%
c unhd: 897 strd, 0 bin 0%, 17 trn 2%, 880 lrg 98%, 881 red 98%
c vars: 11358 remaining 15% and 64373 removed 85% out of 75731
c vars: 39073 fixed 52%, 4258 eliminated 6%, 21042 equivalent 28%
c vsts: 47197652 visits, 35% srch, 65% simp, 0% lkhd
c vsts: 4.7 search visits per propagation 3235.5 per conflict
c wchs: 3940035 pushed, 1118637 enlarged, 23 defrags
c 
c scaledglue  added       reduced       forcing      resolved     conflicts
c 
c all      4462 100      2040 100     45672 100     12671 100      1195 100
c 
c  0          0   0         0   0         0   0         0   0         0   0 
c  1         26   1         7   0       538   1       105   1         3   0 
c  2       1542  35       714  35     27548  60<     5082  40       471  39 
c  3       1775  40<      698  34<    14300  31      4978  39<      522  44<
c  4        584  13       334  16      2133   5      1406  11       124  10 
c  5        245   5       138   7       548   1       516   4        37   3 
c  6        154   3        72   4       380   1       336   3        23   2 
c  7         98   2        53   3       159   0       181   1         9   1 
c  8         18   0         8   0        36   0        31   0         2   0 
c  9          9   0         5   0        16   0        19   0         3   0 
c 10          7   0         7   0        10   0        12   0         1   0 
c 11          3   0         3   0         3   0         4   0         0   0 
c 12          1   0         1   0         1   0         1   0         0   0 
c 13          0   0         0   0         0   0         0   0         0   0 
c 14          0   0         0   0         0   0         0   0         0   0 
c 15          0   0         0   0         0   0         0   0         0   0 
c 
c avg             3.1           3.2           2.5           2.9           2.9
c std             1.3           1.4           0.8           1.2           1.0
c 
c 37839 decisions, 5090 conflicts, 745.4 conflicts/sec
c 11649741 propagations, 1.7 megaprops/sec
c 6.8 seconds, 18.2 MB
c 
c    0.220   3% analysis
c    0.104   2% block
c    0.032   0% bump
c    0.000   0% card
c    0.936  14% cce
c    1.388  20% cliff
c    0.004   0% cutwidth
c    0.028   0% decide
c    0.000   0% force
c    0.252   4% gc
c    0.124   2% cgrclsr
c    0.092   1% decomp
c    0.056   1% defrag
c    1.876  27% elim
c    0.504   7% gauss
c    0.148   2% lift
c    0.032   0% mincls
c    0.020   0% phase
c    0.188   3% probe
c    0.008   0% reduce
c    0.028   0% restart
c    0.032   0% ternres
c    0.012   0% transred
c    0.272   4% unhide
c ==================================
c    0.012   0% preprocessing     0%
c    5.728  84% inprocessing    100%
c ==================================
c    5.740  84% simplifying
c    0.000   0% lookahead
c    1.084  16% search
c ==================================
c    6.828 100% all
c
s SATISFIABLE
